solving instance uflp nlass holmberg 47 log
Set parameter TokenServer to value "licences.gerad.lan"
Set parameter MIPGap to value 1e-06
Set parameter FuncPieceError to value 1e-06
Set parameter Threads to value 1
Set parameter FuncPieces to value -2
Set parameter TimeLimit to value 3600
Gurobi Optimizer version 12.0.2 build v12.0.2rc0 (linux64 - "AlmaLinux 9.6 (Sage Margay)")

CPU model: Intel(R) Xeon(R) Gold 6258R CPU @ 2.70GHz, instruction set [SSE2|AVX|AVX2|AVX512]
Thread count: 56 physical cores, 56 logical processors, using up to 1 threads

Non-default parameters:
TimeLimit  3600
MIPGap  1e-06
Threads  1
FuncPieces  -2
FuncPieceError  1e-06

Optimize a model with 3690 rows, 4510 columns and 8100 nonzeros
Model fingerprint: 0x58be9280
Model has 900 function constraints treated as nonlinear
  900 LOG
Variable types: 3600 continuous, 910 integer (910 binary)
Coefficient statistics:
  Matrix range     [1e+00, 1e+02]
  Objective range  [1e+00, 5e+02]
  Bounds range     [1e+00, 1e+10]
  RHS range        [1e+00, 1e+00]
Warning: Model contains large bounds
         Consider reformulating model or setting NumericFocus parameter
         to avoid numerical issues.
Warning: x < 1e-10 in domain of log(x).
         Setting lower bound to 1e-10.
Presolve removed 2700 rows and 2700 columns
Presolve time: 0.01s
Presolved: 5490 rows, 1811 columns, 11700 nonzeros
Presolved model has 900 nonlinear constraint(s)

Solving non-convex MINLP

Variable types: 1801 continuous, 10 integer (10 binary)
Found heuristic solution: objective 15936.000000

Root relaxation: objective 5.673000e+03, 960 iterations, 0.01 seconds (0.01 work units)

    Nodes    |    Current Node    |     Objective Bounds      |     Work
 Expl Unexpl |  Obj  Depth IntInf | Incumbent    BestBd   Gap | It/Node Time

*    0     0               0    5673.0000000 5673.00000  0.00%     -    0s

Explored 1 nodes (960 simplex iterations) in 0.03 seconds (0.02 work units)
Thread count was 1 (of 56 available processors)

Solution count 2: 5673 15936 

Optimal solution found (tolerance 1.00e-06)
Best objective 5.673000000000e+03, best bound 5.673000000000e+03, gap 0.0000%

User-callback calls 264, time in user-callback 0.00 sec
reading holmberg data file ../../../../../instances/uflp/holmberg/p47
primal_bound = 5673.0, dual_bound = 5673.0, gap = 0.0, time = 0.04
